20
60.0
0 19 0.96 15.21
1 18 1.27 9.6
2 17 0.81 8.04
3 16 0.1 12.5
4 15 2.6 10.46
5 14 0.5 14.06
6 13 0.1 12.99
7 12 0.8 14.2
8 11 0.36 8.21
9 10 0.09 14.97
10 9 1.15 8.63
11 8 0.1 15.26
12 7 0.13 13.83
13 6 0.77 10.42
14 5 0.13 16.59
15 4 0.2 9.35
16 3 0.16 8.88
17 2 0.08 16.38
18 1 2.52 0.11
